(set-logic QF_S)
(declare-fun var0 () String)
(declare-fun var1 () String)
(declare-fun var2 () String)
(declare-fun var3 () String)
(declare-fun var4 () String)
(declare-fun var5 () String)
(declare-fun var6 () String)
(declare-fun var7 () String)
(declare-fun var8 () String)
(declare-fun var9 () String)
(declare-fun var10 () String)
(declare-fun var11 () String)
(declare-fun var12 () String)
(declare-fun var13 () String)
(declare-fun var14 () String)
(declare-fun var15 () String)
(declare-fun var16 () String)
(declare-fun var17 () String)
(declare-fun var18 () String)
(declare-fun var19 () String)
(declare-fun var20 () String)
(declare-fun var21 () String)
(declare-fun var22 () String)
(declare-fun var23 () String)
(declare-fun var24 () String)
(declare-fun var25 () String)
(declare-fun var26 () String)
(declare-fun var27 () String)
(declare-fun var28 () String)
(declare-fun var29 () String)
(declare-fun var30 () String)
(declare-fun var31 () String)
(declare-fun var32 () String)
(declare-fun var33 () String)
(declare-fun var34 () String)
(declare-fun var35 () String)
(declare-fun var36 () String)
(declare-fun var37 () String)
(declare-fun var38 () String)
(declare-fun var39 () String)
(declare-fun var40 () String)
(declare-fun var41 () String)
(declare-fun var42 () String)
(declare-fun var43 () String)
(declare-fun var44 () String)
(declare-fun var45 () String)
(declare-fun var46 () String)
(declare-fun var47 () String)
(declare-fun var48 () String)
(declare-fun var49 () String)
(declare-fun var50 () String)
(declare-fun var51 () String)
(declare-fun var52 () String)
(declare-fun var53 () String)
(declare-fun var54 () String)
(declare-fun var55 () String)
(declare-fun var56 () String)
(declare-fun var57 () String)
(declare-fun var58 () String)
(declare-fun var59 () String)
(declare-fun var60 () String)
(assert (= var0 (Concat var1 var2)))
(assert (= var2 (Concat var3 var4)))
(assert (= var4 (Concat var5 var6)))
(assert (= var6 (Concat var7 var8)))
(assert (= var8 (Concat var9 var10)))
(assert (= var10 (Concat var11 var12)))
(assert (= var12 (Concat var13 var14)))
(assert (= var14 (Concat var15 var16)))
(assert (= var16 (Concat var17 var18)))
(assert (= var18 (Concat var19 var20)))
(assert (= var20 (Concat var21 var22)))
(assert (= var22 (Concat var23 var24)))
(assert (= var24 (Concat var25 var26)))
(assert (= var26 (Concat var27 var28)))
(assert (= var28 (Concat var29 var30)))
(assert (= var30 (Concat var31 var32)))
(assert (= var32 (Concat var33 var34)))
(assert (= var34 (Concat var35 var36)))
(assert (= var36 (Concat var37 var38)))
(assert (= var38 (Concat var39 var40)))
(assert (= var40 (Concat var41 var42)))
(assert (= var42 (Concat var43 var44)))
(assert (= var44 (Concat var45 var46)))
(assert (= var46 (Concat var47 var48)))
(assert (= var48 (Concat var49 var50)))
(assert (= var50 (Concat var51 var52)))
(assert (= var52 (Concat var53 var54)))
(assert (= var54 (Concat var55 var56)))
(assert (= var56 (Concat var57 var58)))
(assert (= var58 (Concat var59 var60)))
(assert (= var0 "solution"))
(assert (= "0" (CharAt var34 41)))
(assert (= "m" (CharAt var0 120)))
(assert (= "}" (CharAt var18 460)))
(assert (= "S" (CharAt var26 691)))
(assert (= "T" (CharAt var46 512)))
(assert (= "+" (CharAt var26 183)))
(assert (= "Q" (CharAt var6 621)))
(assert (= "d" (CharAt var16 917)))
(assert (= ";" (CharAt var59 627)))
(assert (= "8" (CharAt var17 857)))
(assert (= "z" (CharAt var49 773)))
(assert (= "Z" (CharAt var54 522)))
(assert (= "P" (CharAt var12 859)))
(assert (= "*" (CharAt var32 841)))
(assert (= "[" (CharAt var41 718)))
(assert (= "9" (CharAt var59 294)))
(assert (= "N" (CharAt var2 627)))
(assert (= "O" (CharAt var43 360)))
(assert (= "@" (CharAt var52 921)))
(assert (= "v" (CharAt var55 902)))
(assert (= "$" (CharAt var30 712)))
(assert (= "x" (CharAt var47 480)))
(assert (= "b" (CharAt var57 333)))
(assert (= "&" (CharAt var37 610)))
(assert (= "J" (CharAt var13 151)))
(assert (= "X" (CharAt var19 656)))
(assert (= "Y" (CharAt var4 474)))
(assert (= "J" (CharAt var13 853)))
(assert (= "{" (CharAt var55 729)))
(assert (= "I" (CharAt var9 113)))
(assert (= "v" (CharAt var32 847)))
(assert (= "&" (CharAt var46 594)))
(assert (= "0" (CharAt var24 832)))
(assert (= "W" (CharAt var33 855)))
(assert (= "Q" (CharAt var34 213)))
(assert (= "\"" (CharAt var2 315)))
(assert (= "+" (CharAt var22 673)))
(assert (= "z" (CharAt var1 766)))
(assert (= "," (CharAt var19 782)))
(assert (= "5" (CharAt var33 214)))
(assert (= "s" (CharAt var8 138)))
(assert (= "2" (CharAt var56 354)))
(assert (= "T" (CharAt var32 744)))
(assert (= "&" (CharAt var47 960)))
(assert (= "g" (CharAt var45 542)))
(assert (= "v" (CharAt var33 771)))
(assert (= "c" (CharAt var40 478)))
(assert (= "@" (CharAt var23 105)))
(assert (= "J" (CharAt var50 103)))
(assert (= "N" (CharAt var32 76)))
(assert (= "a" (CharAt var45 534)))
(assert (= "%" (CharAt var16 965)))
(assert (= "D" (CharAt var11 30)))
(assert (= "U" (CharAt var34 870)))
(assert (= "]" (CharAt var14 832)))
(assert (= "C" (CharAt var47 817)))
(assert (= "J" (CharAt var12 985)))
(assert (= "9" (CharAt var36 777)))
(assert (= "^" (CharAt var29 596)))
(assert (= "p" (CharAt var47 452)))
(assert (= "a" (CharAt var58 813)))
(assert (= "=" (CharAt var43 297)))
(assert (= "4" (CharAt var20 322)))
(assert (= "j" (CharAt var51 54)))
(assert (= "e" (CharAt var12 392)))
(assert (= "3" (CharAt var38 371)))
(assert (= "h" (CharAt var47 784)))
(assert (= "4" (CharAt var8 105)))
(assert (= "h" (CharAt var51 642)))
(assert (= "j" (CharAt var53 902)))
(assert (= "~" (CharAt var8 857)))
(assert (= "u" (CharAt var10 166)))
(assert (= "G" (CharAt var58 951)))
(assert (= "u" (CharAt var38 178)))
(assert (= "v" (CharAt var53 489)))
(assert (= "r" (CharAt var19 44)))
(assert (= "R" (CharAt var32 192)))
(assert (= "l" (CharAt var21 724)))
(assert (= "k" (CharAt var55 950)))
(assert (= "`" (CharAt var18 606)))
(assert (= "W" (CharAt var56 74)))
(assert (= "a" (CharAt var59 183)))
(assert (= "a" (CharAt var51 474)))
(assert (= "Z" (CharAt var12 686)))
(assert (= "w" (CharAt var17 766)))
(assert (= "Q" (CharAt var34 152)))
(assert (= "g" (CharAt var9 337)))
(assert (= "&" (CharAt var15 942)))
(assert (= "Q" (CharAt var37 192)))
(assert (= "2" (CharAt var29 95)))
(assert (= "P" (CharAt var53 372)))
(assert (= "b" (CharAt var22 49)))
(assert (= "C" (CharAt var59 635)))
(assert (= "F" (CharAt var37 26)))
(assert (= ">" (CharAt var17 723)))
(assert (= "+" (CharAt var27 315)))
(assert (= "n" (CharAt var11 225)))
(assert (= "E" (CharAt var35 447)))
(assert (= "L" (CharAt var47 475)))
(assert (= "-" (CharAt var22 145)))
(assert (= "j" (CharAt var23 784)))
(assert (= "U" (CharAt var53 637)))
(assert (= "u" (CharAt var32 570)))
(assert (= "3" (CharAt var3 663)))
(assert (= "+" (CharAt var18 57)))
(assert (= "j" (CharAt var9 648)))
(assert (= "M" (CharAt var1 762)))
(assert (= "\\" (CharAt var48 792)))
(assert (= "v" (CharAt var33 144)))
(assert (= "'" (CharAt var14 13)))
(assert (= "I" (CharAt var48 13)))
(assert (= "n" (CharAt var31 340)))
(assert (= "s" (CharAt var10 208)))
(assert (= "P" (CharAt var12 539)))
(assert (= "J" (CharAt var50 783)))
(assert (= "8" (CharAt var49 789)))
(assert (= "b" (CharAt var21 119)))
(assert (= "u" (CharAt var13 222)))
(assert (= "L" (CharAt var52 844)))
(assert (= ":" (CharAt var22 360)))
(assert (= "t" (CharAt var60 759)))
(assert (= "[" (CharAt var53 681)))
(assert (= "k" (CharAt var43 797)))
(assert (= "4" (CharAt var32 692)))
(assert (= "K" (CharAt var49 207)))
(assert (= "h" (CharAt var59 448)))
(assert (= "r" (CharAt var48 469)))
(assert (= "\\" (CharAt var27 212)))
(assert (= "%" (CharAt var52 31)))
(assert (= "U" (CharAt var0 195)))
(assert (= "w" (CharAt var14 15)))
(assert (= "p" (CharAt var1 952)))
(assert (= "I" (CharAt var41 985)))
(assert (= "`" (CharAt var34 285)))
(assert (= "H" (CharAt var27 274)))
(assert (= ">" (CharAt var55 36)))
(assert (= "b" (CharAt var29 459)))
(assert (= "<" (CharAt var31 331)))
(assert (= "|" (CharAt var13 707)))
(assert (= "L" (CharAt var13 669)))
(assert (= "%" (CharAt var22 815)))
(assert (= "1" (CharAt var38 24)))
(assert (= "\\" (CharAt var6 138)))
(assert (= "6" (CharAt var27 762)))
(assert (= "W" (CharAt var27 673)))
(assert (= "R" (CharAt var40 488)))
(assert (= "%" (CharAt var39 280)))
(assert (= "r" (CharAt var13 190)))
(assert (= "+" (CharAt var53 39)))
(assert (= "M" (CharAt var35 595)))
(assert (= "T" (CharAt var42 549)))
(assert (= "u" (CharAt var59 842)))
(assert (= "=" (CharAt var30 771)))
(assert (= "A" (CharAt var38 922)))
(assert (= "V" (CharAt var38 665)))
(assert (= "M" (CharAt var4 295)))
(assert (= "S" (CharAt var18 401)))
(assert (= "n" (CharAt var57 762)))
(assert (= "F" (CharAt var1 398)))
(assert (= "w" (CharAt var6 773)))
(assert (= "F" (CharAt var5 721)))
(assert (= "|" (CharAt var11 683)))
(assert (= "g" (CharAt var3 802)))
(assert (= "c" (CharAt var35 801)))
(assert (= "%" (CharAt var50 297)))
(assert (= ";" (CharAt var51 324)))
(assert (= "q" (CharAt var18 648)))
(assert (= "C" (CharAt var47 705)))
(assert (= "9" (CharAt var5 841)))
(assert (= "%" (CharAt var7 266)))
(assert (= "1" (CharAt var21 399)))
(assert (= "|" (CharAt var17 652)))
(assert (= "_" (CharAt var14 847)))
(assert (= "9" (CharAt var1 603)))
(assert (= "[" (CharAt var11 267)))
(assert (= "'" (CharAt var34 531)))
(assert (= "u" (CharAt var34 22)))
(assert (= "z" (CharAt var54 902)))
(assert (= "n" (CharAt var41 405)))
(assert (= "b" (CharAt var39 153)))
(assert (= ";" (CharAt var34 468)))
(assert (= "6" (CharAt var59 714)))
(assert (= "l" (CharAt var54 931)))
(assert (= "x" (CharAt var1 458)))
(assert (= "W" (CharAt var16 433)))
(assert (= "[" (CharAt var2 239)))
(assert (= "x" (CharAt var4 0)))
(assert (= "m" (CharAt var31 142)))
(assert (= "8" (CharAt var28 533)))
(assert (= "[" (CharAt var38 525)))
(assert (= "^" (CharAt var37 420)))
(assert (= "A" (CharAt var5 995)))
(assert (= "\"" (CharAt var58 889)))
(assert (= "W" (CharAt var41 266)))
(assert (= "y" (CharAt var53 311)))
(assert (= "M" (CharAt var49 867)))
(assert (= "f" (CharAt var24 59)))
(assert (= "]" (CharAt var7 249)))
(assert (= "I" (CharAt var31 56)))
(assert (= "L" (CharAt var6 14)))
(assert (= "q" (CharAt var30 28)))
(check-sat)
(get-model)